HUN,8,6,227
1,27,4,25,5,23,2,7,3,17,0,15
0,10,1,23,4,7,3,12,2,2,5,12
3,2,4,19,5,4,0,17,1,18,2,27
4,23,5,6,2,6,1,16,3,5,0,9
3,9,2,9,4,9,1,15,5,4,0,29
2,24,0,4,3,28,5,29,4,4,1,14
1,30,0,4,5,6,4,20,2,17,3,14
1,20,0,1,5,8,4,12,3,13,2,9
